
;this file is automatically generated: Thu Jan 02 16:54:47 GMT 2020

;declarations generated

(declare-fun oclExcludes ( Int Int) Bool)
(declare-fun class16_Class16IntAttr3 ( Int) Int)
(declare-fun Cardinality ( Int) Int)
(declare-fun type_bddfd6d8_1808_48ab_8be5_f8098c67ef34_Class16 ( Int) Bool)
(declare-fun type_bddfd6d8_1808_48ab_8be5_f8098c67ef34_Class19 ( Int) Bool)
(declare-fun type_bddfd6d8_1808_48ab_8be5_f8098c67ef34_Class2 ( Int) Bool)
(declare-fun type_bddfd6d8_1808_48ab_8be5_f8098c67ef34_Class5 ( Int) Bool)
(declare-fun type_bddfd6d8_1808_48ab_8be5_f8098c67ef34_Class31 ( Int) Bool)
(declare-fun type_bddfd6d8_1808_48ab_8be5_f8098c67ef34_Class48 ( Int) Bool)
(declare-fun type_bddfd6d8_1808_48ab_8be5_f8098c67ef34_Class46 ( Int) Bool)
(declare-fun oclSelect ( Int Bool) Int)
(declare-fun obj_0bf0e883_6bab_4d71_a57b_17d65622b411 ( Int) Int)
(declare-fun Enum0 ( Int) Int)
(declare-fun Enum1 ( Int) Int)
(declare-fun Enum2 ( Int) Int)
(declare-fun container_ ( Int) Int)
(declare-fun oclIncludes ( Int Int) Bool)
(declare-fun ObjAt ( Int Int) Int)

;formula(s) generated
(assert (! (forall ((v Int)) (=> (and (and (and (and (and (and ( type_bddfd6d8_1808_48ab_8be5_f8098c67ef34_Class16 v )  ( type_bddfd6d8_1808_48ab_8be5_f8098c67ef34_Class46 v ) ) ( type_bddfd6d8_1808_48ab_8be5_f8098c67ef34_Class48 v ) ) ( type_bddfd6d8_1808_48ab_8be5_f8098c67ef34_Class5 v ) ) ( type_bddfd6d8_1808_48ab_8be5_f8098c67ef34_Class19 v ) ) ( type_bddfd6d8_1808_48ab_8be5_f8098c67ef34_Class2 v ) ) ( type_bddfd6d8_1808_48ab_8be5_f8098c67ef34_Class31 v ) ) (< ( class16_Class16IntAttr3 ( obj_0bf0e883_6bab_4d71_a57b_17d65622b411 v )  )  15))):named l0))
(assert (exists ((o Int)) (and (and (and (and (and (and ( type_bddfd6d8_1808_48ab_8be5_f8098c67ef34_Class16 ( obj_0bf0e883_6bab_4d71_a57b_17d65622b411 o )  )  ( type_bddfd6d8_1808_48ab_8be5_f8098c67ef34_Class46 ( obj_0bf0e883_6bab_4d71_a57b_17d65622b411 o )  ) ) ( type_bddfd6d8_1808_48ab_8be5_f8098c67ef34_Class48 ( obj_0bf0e883_6bab_4d71_a57b_17d65622b411 o )  ) ) ( type_bddfd6d8_1808_48ab_8be5_f8098c67ef34_Class5 ( obj_0bf0e883_6bab_4d71_a57b_17d65622b411 o )  ) ) ( type_bddfd6d8_1808_48ab_8be5_f8098c67ef34_Class19 ( obj_0bf0e883_6bab_4d71_a57b_17d65622b411 o )  ) ) ( type_bddfd6d8_1808_48ab_8be5_f8098c67ef34_Class2 ( obj_0bf0e883_6bab_4d71_a57b_17d65622b411 o )  ) ) ( type_bddfd6d8_1808_48ab_8be5_f8098c67ef34_Class31 ( obj_0bf0e883_6bab_4d71_a57b_17d65622b411 o )  ) )))

 ;end of formula 